
===== New CPLEX run =====
Instance: /home/yorig/tuner/mpils-tests/instances/miplib/medium-1/momentum1.mps
Config: /scratch/yorig/mpils-results-grid-ticks-10000/medium-1/16proc/seed-5/6_momentum1_seed-5_20260425_215516/iterated_local_search/run_2_worker_14/ils_config_9498979149413627446.prm
========================

Selected objective sense:  MINIMIZE
Selected objective  name:  MINIMIZE
Selected RHS        name:  rhs
Selected bound      name:  bnd
Version identifier: 22.1.2.0 | 2024-11-26 | 0edbb82fd
CPXPARAM_Threads                                 8
CPXPARAM_Parallel                                1
CPXPARAM_MIP_Strategy_Branch                     -1
CPXPARAM_MIP_Cuts_FlowCovers                     2
CPXPARAM_MIP_Cuts_GUBCovers                      2
CPXPARAM_MIP_Limits_GomoryCand                   400
CPXPARAM_MIP_Cuts_Gomory                         1
CPXPARAM_MIP_Cuts_PathCut                        1
CPXPARAM_Emphasis_MIP                            2
CPXPARAM_MIP_Strategy_Dive                       1
CPXPARAM_DetTimeLimit                            10000
Tried aggregator 3 times.
MIP Presolve eliminated 30810 rows and 1362 columns.
MIP Presolve modified 22293 coefficients.
Aggregator did 232 substitutions.
Reduced MIP has 11638 rows, 3580 columns, and 46688 nonzeros.
Reduced MIP has 1625 binaries, 0 generals, 0 SOSs, and 0 indicators.
Presolve time = 0.10 sec. (139.58 ticks)
Found incumbent of value 533875.101733 after 0.12 sec. (154.72 ticks)
Probing fixed 392 vars, tightened 1078 bounds.
Probing changed sense of 113 constraints.
Probing time = 0.08 sec. (90.30 ticks)
Cover probing fixed 0 vars, tightened 267 bounds.
Tried aggregator 2 times.
MIP Presolve eliminated 3295 rows and 847 columns.
MIP Presolve modified 7082 coefficients.
Aggregator did 11 substitutions.
Reduced MIP has 8332 rows, 2722 columns, and 31418 nonzeros.
Reduced MIP has 1168 binaries, 0 generals, 0 SOSs, and 0 indicators.
Presolve time = 0.04 sec. (44.43 ticks)
Probing fixed 1 vars, tightened 256 bounds.
Probing time = 0.05 sec. (44.20 ticks)
Cover probing fixed 0 vars, tightened 190 bounds.
Tried aggregator 1 time.
Detecting symmetries...
MIP Presolve eliminated 26 rows and 2 columns.
MIP Presolve modified 5059 coefficients.
Reduced MIP has 8306 rows, 2720 columns, and 31355 nonzeros.
Reduced MIP has 1167 binaries, 0 generals, 0 SOSs, and 0 indicators.
Presolve time = 0.02 sec. (22.06 ticks)
Probing fixed 0 vars, tightened 90 bounds.
Probing time = 0.05 sec. (40.55 ticks)
Cover probing fixed 0 vars, tightened 69 bounds.
Clique table members: 18692.
MIP emphasis: optimality.
MIP search method: dynamic search.
Parallel mode: deterministic, using up to 8 threads.
Root relaxation solution time = 0.11 sec. (144.31 ticks)

        Nodes                                         Cuts/
   Node  Left     Objective  IInf  Best Integer    Best Bound    ItCnt     Gap

*     0+    0                       533875.1017    44880.8652            91.59%
*     0+    0                       533847.9795    44880.8652            91.59%
*     0+    0                       333826.8649    44880.8652            86.56%
*     0+    0                       333809.0666    44880.8652            86.55%
      0     0    79213.0345   216   333809.0666    79213.0345     1531   76.27%
      0     0    96254.6467   297   333809.0666     Cuts: 209     2066   71.16%
      0     0    96260.5587   272   333809.0666      Cuts: 87     2381   71.16%
      0     0    96261.8963   300   333809.0666      Cuts: 37     2532   71.16%
*     0+    0                       320980.8773    96261.8963            70.01%
      0     0  -1.00000e+75     0   320980.8773    96261.8963     2532   70.01%
      0     0    96272.5041   284   320980.8773      Cuts: 36     2636   70.01%
      0     0    96274.6273   273   320980.8773      Cuts: 18     2701   70.01%
Detecting symmetries...
      0     0    96276.5896   276   320980.8773      Cuts: 17     2749   70.01%
*     0+    0                       320964.4466    96276.5896            70.00%
      0     0  -1.00000e+75     0   320964.4466    96276.5896     2749   70.00%
Detecting symmetries...
      0     2    96276.5896   276   320964.4466    96276.5896     2749   70.00%
Elapsed time = 2.74 sec. (4484.59 ticks, tree = 0.02 MB, solutions = 6)
     27    18    96347.2472   244   320964.4466    96287.7064     4812   70.00%
*    56+    7                       308135.9788    96287.7064            68.75%
     79    72    98534.5110   263   308135.9788    96293.2423     9657   68.75%
    128   101   103033.6683   267   308135.9788    96293.2423    13448   68.75%
    140    98   128689.3159   301   308135.9788    96293.2423    14073   68.75%
    150   137   109155.8896   183   308135.9788    96293.2423    22339   68.75%
    161   140   115584.6886   197   308135.9788    96293.2423    26864   68.75%
    199   156   115641.4655   252   308135.9788    96298.9454    30634   68.75%
    242   182    99732.7849   286   308135.9788    96298.9454    35548   68.75%
    317   255   134851.8115   130   308135.9788    96298.9454    41835   68.75%
    417   342    96322.4420   216   308135.9788    96298.9454    50843   68.75%
Elapsed time = 4.60 sec. (7816.23 ticks, tree = 6.92 MB, solutions = 8)
    567   449    96554.5624   214   308135.9788    96302.0681    63384   68.75%
    736   622   134844.0466   188   308135.9788    96302.5090    74792   68.75%

GUB cover cuts applied:  0
Clique cuts applied:  24
Implied bound cuts applied:  13
Flow cuts applied:  117
Flow path cuts applied:  0
Zero-half cuts applied:  17
Gomory fractional cuts applied:  16

Root node processing (before b&c):
  Real time             =    2.71 sec. (4452.04 ticks)
Parallel b&c, 8 threads:
  Real time             =    3.01 sec. (5556.89 ticks)
  Sync time (average)   =    0.36 sec.
  Wait time (average)   =    0.00 sec.
                          ------------
Total (root+branch&cut) =    5.73 sec. (10008.93 ticks)
Gap: 68.75%
Upper bound: 308136
Lower bound: 96302.5
End of CPLEX run. Time: 5.72798 seconds

===== New CPLEX run =====
Instance: /home/yorig/tuner/mpils-tests/instances/miplib/medium-1/momentum1.mps
Config: /scratch/yorig/mpils-results-grid-ticks-10000/medium-1/16proc/seed-5/6_momentum1_seed-5_20260425_215516/iterated_local_search/run_2_worker_14/ils_config_10874179155538775628.prm
========================

Selected objective sense:  MINIMIZE
Selected objective  name:  MINIMIZE
Selected RHS        name:  rhs
Selected bound      name:  bnd
Version identifier: 22.1.2.0 | 2024-11-26 | 0edbb82fd
CPXPARAM_Threads                                 8
CPXPARAM_Parallel                                1
CPXPARAM_MIP_Strategy_Branch                     1
CPXPARAM_MIP_Cuts_FlowCovers                     2
CPXPARAM_MIP_Cuts_GUBCovers                      2
CPXPARAM_MIP_Limits_GomoryCand                   400
CPXPARAM_MIP_Cuts_Gomory                         1
CPXPARAM_MIP_Cuts_PathCut                        1
CPXPARAM_Emphasis_MIP                            2
CPXPARAM_MIP_Strategy_Dive                       1
CPXPARAM_DetTimeLimit                            10000
Tried aggregator 3 times.
MIP Presolve eliminated 30810 rows and 1362 columns.
MIP Presolve modified 22293 coefficients.
Aggregator did 232 substitutions.
Reduced MIP has 11638 rows, 3580 columns, and 46688 nonzeros.
Reduced MIP has 1625 binaries, 0 generals, 0 SOSs, and 0 indicators.
Presolve time = 0.10 sec. (139.58 ticks)
Found incumbent of value 533875.101733 after 0.12 sec. (154.72 ticks)
Probing fixed 392 vars, tightened 1078 bounds.
Probing changed sense of 113 constraints.
Probing time = 0.08 sec. (90.30 ticks)
Cover probing fixed 0 vars, tightened 267 bounds.
Tried aggregator 2 times.
MIP Presolve eliminated 3295 rows and 847 columns.
MIP Presolve modified 7082 coefficients.
Aggregator did 11 substitutions.
Reduced MIP has 8332 rows, 2722 columns, and 31418 nonzeros.
Reduced MIP has 1168 binaries, 0 generals, 0 SOSs, and 0 indicators.
Presolve time = 0.04 sec. (44.43 ticks)
Probing fixed 1 vars, tightened 256 bounds.
Probing time = 0.04 sec. (44.20 ticks)
Cover probing fixed 0 vars, tightened 190 bounds.
Tried aggregator 1 time.
Detecting symmetries...
MIP Presolve eliminated 26 rows and 2 columns.
MIP Presolve modified 5059 coefficients.
Reduced MIP has 8306 rows, 2720 columns, and 31355 nonzeros.
Reduced MIP has 1167 binaries, 0 generals, 0 SOSs, and 0 indicators.
Presolve time = 0.02 sec. (22.06 ticks)
Probing fixed 0 vars, tightened 90 bounds.
Probing time = 0.04 sec. (40.55 ticks)
Cover probing fixed 0 vars, tightened 69 bounds.
Clique table members: 18692.
MIP emphasis: optimality.
MIP search method: dynamic search.
Parallel mode: deterministic, using up to 8 threads.
Root relaxation solution time = 0.11 sec. (144.31 ticks)

        Nodes                                         Cuts/
   Node  Left     Objective  IInf  Best Integer    Best Bound    ItCnt     Gap

*     0+    0                       533875.1017    44880.8652            91.59%
*     0+    0                       533847.9795    44880.8652            91.59%
*     0+    0                       333826.8649    44880.8652            86.56%
*     0+    0                       333809.0666    44880.8652            86.55%
      0     0    79213.0345   216   333809.0666    79213.0345     1531   76.27%
      0     0    96254.6467   297   333809.0666     Cuts: 209     2066   71.16%
      0     0    96260.5587   272   333809.0666      Cuts: 87     2381   71.16%
      0     0    96261.8963   300   333809.0666      Cuts: 37     2532   71.16%
*     0+    0                       320980.8773    96261.8963            70.01%
      0     0  -1.00000e+75     0   320980.8773    96261.8963     2532   70.01%
      0     0    96272.5041   284   320980.8773      Cuts: 36     2636   70.01%
      0     0    96274.6273   273   320980.8773      Cuts: 18     2701   70.01%
Detecting symmetries...
      0     0    96276.5896   276   320980.8773      Cuts: 17     2749   70.01%
*     0+    0                       320964.4466    96276.5896            70.00%
      0     0  -1.00000e+75     0   320964.4466    96276.5896     2749   70.00%
Detecting symmetries...
      0     2    96276.5896   276   320964.4466    96276.5896     2749   70.00%
Elapsed time = 2.73 sec. (4484.59 ticks, tree = 0.02 MB, solutions = 6)
     11    12    96293.7030   240   320964.4466    96289.2810     4225   70.00%
*    26+    5                       314534.9382    96289.2810            69.39%
*    28+    4                       308140.8294    96289.2810            68.75%
     32    20   102704.1151   198   308140.8294    96289.2810     6456   68.75%
     58    51   115521.3739   127   308140.8294    96289.2810    12927   68.75%
     79    13   101410.5527   242   308140.8294    96289.2810     6462   68.75%
     89    55   113931.8641   217   308140.8294    96289.2810    15745   68.75%
    108    79   134786.9055   113   308140.8294    96289.2810    23434   68.75%
    150   100    96523.8074   216   308140.8294    96289.2810    29356   68.75%
    187   106   107498.0551   161   308140.8294    96289.2810    33838   68.75%
    232   147   120946.3468   161   308140.8294    96289.2810    40288   68.75%
    324   210        cutoff         308140.8294    96289.2810    55116   68.75%
Elapsed time = 4.66 sec. (7738.61 ticks, tree = 0.28 MB, solutions = 9)
    468   230    96310.7831   226   308140.8294    96293.5506    57841   68.75%
    586   380   102757.7779   151   308140.8294    96297.7763    87247   68.75%
*   634+  380                       308140.8290    96297.7763            68.75%

GUB cover cuts applied:  0
Clique cuts applied:  24
Implied bound cuts applied:  14
Flow cuts applied:  119
Flow path cuts applied:  0
Zero-half cuts applied:  17
Gomory fractional cuts applied:  16

Root node processing (before b&c):
  Real time             =    2.71 sec. (4451.98 ticks)
Parallel b&c, 8 threads:
  Real time             =    3.27 sec. (5554.04 ticks)
  Sync time (average)   =    0.34 sec.
  Wait time (average)   =    0.00 sec.
                          ------------
Total (root+branch&cut) =    5.97 sec. (10006.03 ticks)
Gap: 68.75%
Upper bound: 308141
Lower bound: 96297.8
End of CPLEX run. Time: 5.97502 seconds

===== New CPLEX run =====
Instance: /home/yorig/tuner/mpils-tests/instances/miplib/medium-1/momentum1.mps
Config: /scratch/yorig/mpils-results-grid-ticks-10000/medium-1/16proc/seed-5/6_momentum1_seed-5_20260425_215516/iterated_local_search/run_2_worker_14/ils_config_13268596711056467404.prm
========================

Selected objective sense:  MINIMIZE
Selected objective  name:  MINIMIZE
Selected RHS        name:  rhs
Selected bound      name:  bnd
Version identifier: 22.1.2.0 | 2024-11-26 | 0edbb82fd
CPXPARAM_Threads                                 8
CPXPARAM_Parallel                                1
CPXPARAM_MIP_Strategy_Branch                     -1
CPXPARAM_MIP_Cuts_Cliques                        3
CPXPARAM_MIP_Cuts_FlowCovers                     2
CPXPARAM_MIP_Cuts_GUBCovers                      2
CPXPARAM_MIP_Limits_GomoryCand                   400
CPXPARAM_MIP_Cuts_Gomory                         1
CPXPARAM_MIP_Cuts_PathCut                        1
CPXPARAM_Emphasis_MIP                            2
CPXPARAM_MIP_Strategy_Dive                       1
CPXPARAM_DetTimeLimit                            10000
Tried aggregator 3 times.
MIP Presolve eliminated 30810 rows and 1362 columns.
MIP Presolve modified 22293 coefficients.
Aggregator did 232 substitutions.
Reduced MIP has 11638 rows, 3580 columns, and 46688 nonzeros.
Reduced MIP has 1625 binaries, 0 generals, 0 SOSs, and 0 indicators.
Presolve time = 0.10 sec. (139.58 ticks)
Found incumbent of value 533875.101733 after 0.12 sec. (154.72 ticks)
Probing fixed 392 vars, tightened 1078 bounds.
Probing changed sense of 113 constraints.
Probing time = 0.08 sec. (90.30 ticks)
Cover probing fixed 0 vars, tightened 267 bounds.
Tried aggregator 2 times.
MIP Presolve eliminated 3295 rows and 847 columns.
MIP Presolve modified 7082 coefficients.
Aggregator did 11 substitutions.
Reduced MIP has 8332 rows, 2722 columns, and 31418 nonzeros.
Reduced MIP has 1168 binaries, 0 generals, 0 SOSs, and 0 indicators.
Presolve time = 0.04 sec. (44.43 ticks)
Probing fixed 1 vars, tightened 256 bounds.
Probing time = 0.05 sec. (44.20 ticks)
Cover probing fixed 0 vars, tightened 190 bounds.
Tried aggregator 1 time.
Detecting symmetries...
MIP Presolve eliminated 26 rows and 2 columns.
MIP Presolve modified 5059 coefficients.
Reduced MIP has 8306 rows, 2720 columns, and 31355 nonzeros.
Reduced MIP has 1167 binaries, 0 generals, 0 SOSs, and 0 indicators.
Presolve time = 0.02 sec. (22.06 ticks)
Probing fixed 0 vars, tightened 90 bounds.
Probing time = 0.05 sec. (40.55 ticks)
Cover probing fixed 0 vars, tightened 69 bounds.
Clique table members: 18692.
MIP emphasis: optimality.
MIP search method: dynamic search.
Parallel mode: deterministic, using up to 8 threads.
Root relaxation solution time = 0.11 sec. (144.31 ticks)

        Nodes                                         Cuts/
   Node  Left     Objective  IInf  Best Integer    Best Bound    ItCnt     Gap

*     0+    0                       533875.1017    44880.8652            91.59%
*     0+    0                       533847.9795    44880.8652            91.59%
*     0+    0                       333826.8649    44880.8652            86.56%
*     0+    0                       333809.0666    44880.8652            86.55%
      0     0    79213.0345   216   333809.0666    79213.0345     1531   76.27%
      0     0    96254.6467   297   333809.0666     Cuts: 209     2066   71.16%
      0     0    96260.5587   272   333809.0666      Cuts: 87     2381   71.16%
      0     0    96261.8963   300   333809.0666      Cuts: 37     2532   71.16%
*     0+    0                       320980.8773    96261.8963            70.01%
      0     0  -1.00000e+75     0   320980.8773    96261.8963     2532   70.01%
      0     0    96272.5041   284   320980.8773      Cuts: 36     2636   70.01%
      0     0    96274.6273   273   320980.8773      Cuts: 18     2701   70.01%
Detecting symmetries...
      0     0    96276.5896   276   320980.8773      Cuts: 17     2749   70.01%
*     0+    0                       320964.4466    96276.5896            70.00%
      0     0  -1.00000e+75     0   320964.4466    96276.5896     2749   70.00%
Detecting symmetries...
      0     2    96276.5896   276   320964.4466    96276.5896     2749   70.00%
Elapsed time = 2.75 sec. (4484.59 ticks, tree = 0.02 MB, solutions = 6)
     26     7    96307.3823   218   320964.4466    96287.7064     3384   70.00%
*    56+    7                       308135.9788    96287.7064            68.75%
     79    72    98534.5110   263   308135.9788    96293.2423     9657   68.75%
    128   101   103033.6683   267   308135.9788    96293.2423    13448   68.75%
    140    98   128689.3159   301   308135.9788    96293.2423    14073   68.75%
    150   137   109155.8896   183   308135.9788    96293.2423    22339   68.75%
    161   140   115584.6886   197   308135.9788    96293.2423    26864   68.75%
    196   160   114801.9977   166   308135.9788    96298.9454    32313   68.75%
    243   142   100621.6921   191   308135.9788    96298.9454    28104   68.75%
    276   171    98758.0743   251   308135.9788    96298.9454    35260   68.75%
    444   340   102736.2912   207   308135.9788    96298.9454    53165   68.75%
Elapsed time = 4.66 sec. (7849.98 ticks, tree = 3.93 MB, solutions = 8)
    587   462   176525.4807    59   308135.9788    96298.9454    60357   68.75%
    712   538   125788.8510   190   308135.9788    96298.9454    68816   68.75%

GUB cover cuts applied:  0
Clique cuts applied:  26
Implied bound cuts applied:  10
Flow cuts applied:  115
Flow path cuts applied:  0
Zero-half cuts applied:  17
Gomory fractional cuts applied:  16

Root node processing (before b&c):
  Real time             =    2.72 sec. (4452.04 ticks)
Parallel b&c, 8 threads:
  Real time             =    3.20 sec. (5560.43 ticks)
  Sync time (average)   =    0.45 sec.
  Wait time (average)   =    0.00 sec.
                          ------------
Total (root+branch&cut) =    5.92 sec. (10012.46 ticks)
Gap: 68.75%
Upper bound: 308136
Lower bound: 96298.9
End of CPLEX run. Time: 5.92169 seconds

===== New CPLEX run =====
Instance: /home/yorig/tuner/mpils-tests/instances/miplib/medium-1/momentum1.mps
Config: /scratch/yorig/mpils-results-grid-ticks-10000/medium-1/16proc/seed-5/6_momentum1_seed-5_20260425_215516/iterated_local_search/run_2_worker_14/ils_config_12006424303425528958.prm
========================

Selected objective sense:  MINIMIZE
Selected objective  name:  MINIMIZE
Selected RHS        name:  rhs
Selected bound      name:  bnd
Version identifier: 22.1.2.0 | 2024-11-26 | 0edbb82fd
CPXPARAM_Threads                                 8
CPXPARAM_Parallel                                1
CPXPARAM_MIP_Strategy_Branch                     -1
CPXPARAM_MIP_Cuts_FlowCovers                     2
CPXPARAM_MIP_Cuts_GUBCovers                      2
CPXPARAM_MIP_Limits_GomoryCand                   50
CPXPARAM_MIP_Cuts_Gomory                         1
CPXPARAM_MIP_Cuts_PathCut                        1
CPXPARAM_Emphasis_MIP                            2
CPXPARAM_MIP_Strategy_Dive                       1
CPXPARAM_DetTimeLimit                            10000
Tried aggregator 3 times.
MIP Presolve eliminated 30810 rows and 1362 columns.
MIP Presolve modified 22293 coefficients.
Aggregator did 232 substitutions.
Reduced MIP has 11638 rows, 3580 columns, and 46688 nonzeros.
Reduced MIP has 1625 binaries, 0 generals, 0 SOSs, and 0 indicators.
Presolve time = 0.10 sec. (139.58 ticks)
Found incumbent of value 533875.101733 after 0.12 sec. (154.72 ticks)
Probing fixed 392 vars, tightened 1078 bounds.
Probing changed sense of 113 constraints.
Probing time = 0.08 sec. (90.30 ticks)
Cover probing fixed 0 vars, tightened 267 bounds.
Tried aggregator 2 times.
MIP Presolve eliminated 3295 rows and 847 columns.
MIP Presolve modified 7082 coefficients.
Aggregator did 11 substitutions.
Reduced MIP has 8332 rows, 2722 columns, and 31418 nonzeros.
Reduced MIP has 1168 binaries, 0 generals, 0 SOSs, and 0 indicators.
Presolve time = 0.04 sec. (44.43 ticks)
Probing fixed 1 vars, tightened 256 bounds.
Probing time = 0.05 sec. (44.20 ticks)
Cover probing fixed 0 vars, tightened 190 bounds.
Tried aggregator 1 time.
Detecting symmetries...
MIP Presolve eliminated 26 rows and 2 columns.
MIP Presolve modified 5059 coefficients.
Reduced MIP has 8306 rows, 2720 columns, and 31355 nonzeros.
Reduced MIP has 1167 binaries, 0 generals, 0 SOSs, and 0 indicators.
Presolve time = 0.02 sec. (22.06 ticks)
Probing fixed 0 vars, tightened 90 bounds.
Probing time = 0.04 sec. (40.55 ticks)
Cover probing fixed 0 vars, tightened 69 bounds.
Clique table members: 18692.
MIP emphasis: optimality.
MIP search method: dynamic search.
Parallel mode: deterministic, using up to 8 threads.
Root relaxation solution time = 0.11 sec. (144.31 ticks)

        Nodes                                         Cuts/
   Node  Left     Objective  IInf  Best Integer    Best Bound    ItCnt     Gap

*     0+    0                       533875.1017    44880.8652            91.59%
*     0+    0                       533847.9795    44880.8652            91.59%
*     0+    0                       333826.8649    44880.8652            86.56%
*     0+    0                       333809.0666    44880.8652            86.55%
      0     0    79213.0345   216   333809.0666    79213.0345     1531   76.27%
      0     0    96254.6467   297   333809.0666     Cuts: 185     2066   71.16%
      0     0    96260.5587   272   333809.0666      Cuts: 86     2377   71.16%
      0     0    96261.7671   285   333809.0666      Cuts: 36     2476   71.16%
*     0+    0                       327384.1230    96261.7671            70.60%
      0     0  -1.00000e+75     0   327384.1230    96261.7671     2476   70.60%
*     0+    0                       327384.1230    96261.7671            70.60%
      0     0    96272.3142   260   327384.1230      Cuts: 38     2577   70.59%
      0     0    96274.6287   289   327384.1230      Cuts: 15     2675   70.59%
Detecting symmetries...
*     0+    0                       320985.2647    96274.6287            70.01%
*     0+    0                       320985.2647    96274.6302            70.01%
      0     0  -1.00000e+75     0   320985.2647    96274.6302     2675   70.01%
Detecting symmetries...
      0     2    96274.6287   289   320985.2647    96274.6302     2675   70.01%
Elapsed time = 2.37 sec. (3831.11 ticks, tree = 0.02 MB, solutions = 8)
     26    21    96368.3543   272   320985.2647    96283.9253     4849   70.00%
*    42+    5                       314559.2345    96283.9253            69.39%
*    45+    7                       295324.0148    96283.9253            67.40%
     70    61    97782.4921   307   295324.0148    96283.9253     8218   67.40%
    111    86    97812.5962   295   295324.0148    96283.9253    10992   67.40%
    121     6    96286.6885   230   295324.0148    96283.9253     3320   67.40%
    171   127   102720.6006   256   295324.0148    96286.6899    15966   67.40%
    201   179   112358.4371   227   295324.0148    96286.6899    21521   67.40%
    239   198   118791.8888   205   295324.0148    96286.6899    23722   67.40%
    291   220   125215.1907   225   295324.0148    96286.6899    27890   67.40%
    354   290    96454.3207   256   295324.0148    96286.6899    34864   67.40%
    579   461   146086.0270   118   295324.0148    96286.6899    55001   67.40%
Elapsed time = 4.21 sec. (7044.08 ticks, tree = 1.00 MB, solutions = 11)
    694   584   173259.4146   170   295324.0148    96302.0917    70547   67.39%
    905   720        cutoff         295324.0148    96309.0482    77439   67.39%
   1172   917   118785.2088   201   295324.0148    96309.0482    87815   67.39%

GUB cover cuts applied:  0
Clique cuts applied:  21
Implied bound cuts applied:  11
Flow cuts applied:  111
Flow path cuts applied:  0
Zero-half cuts applied:  20
Gomory fractional cuts applied:  4

Root node processing (before b&c):
  Real time             =    2.34 sec. (3800.06 ticks)
Parallel b&c, 8 threads:
  Real time             =    3.63 sec. (6223.37 ticks)
  Sync time (average)   =    0.38 sec.
  Wait time (average)   =    0.00 sec.
                          ------------
Total (root+branch&cut) =    5.97 sec. (10023.43 ticks)
Gap: 67.39%
Upper bound: 295324
Lower bound: 96309
End of CPLEX run. Time: 5.9741 seconds

===== New CPLEX run =====
Instance: /home/yorig/tuner/mpils-tests/instances/miplib/medium-1/momentum1.mps
Config: /scratch/yorig/mpils-results-grid-ticks-10000/medium-1/16proc/seed-5/6_momentum1_seed-5_20260425_215516/iterated_local_search/run_2_worker_14/ils_config_5433140927237825353.prm
========================

Selected objective sense:  MINIMIZE
Selected objective  name:  MINIMIZE
Selected RHS        name:  rhs
Selected bound      name:  bnd
Version identifier: 22.1.2.0 | 2024-11-26 | 0edbb82fd
CPXPARAM_Threads                                 8
CPXPARAM_Parallel                                1
CPXPARAM_MIP_Strategy_Branch                     -1
CPXPARAM_MIP_Cuts_FlowCovers                     2
CPXPARAM_MIP_Cuts_GUBCovers                      -1
CPXPARAM_MIP_Limits_GomoryCand                   50
CPXPARAM_MIP_Cuts_Gomory                         1
CPXPARAM_MIP_Cuts_PathCut                        1
CPXPARAM_Emphasis_MIP                            2
CPXPARAM_MIP_Strategy_Dive                       1
CPXPARAM_DetTimeLimit                            10000
Tried aggregator 3 times.
MIP Presolve eliminated 30810 rows and 1362 columns.
MIP Presolve modified 22293 coefficients.
Aggregator did 232 substitutions.
Reduced MIP has 11638 rows, 3580 columns, and 46688 nonzeros.
Reduced MIP has 1625 binaries, 0 generals, 0 SOSs, and 0 indicators.
Presolve time = 0.10 sec. (139.58 ticks)
Found incumbent of value 533875.101733 after 0.12 sec. (154.72 ticks)
Probing fixed 392 vars, tightened 1078 bounds.
Probing changed sense of 113 constraints.
Probing time = 0.08 sec. (90.30 ticks)
Cover probing fixed 0 vars, tightened 267 bounds.
Tried aggregator 2 times.
MIP Presolve eliminated 3295 rows and 847 columns.
MIP Presolve modified 7082 coefficients.
Aggregator did 11 substitutions.
Reduced MIP has 8332 rows, 2722 columns, and 31418 nonzeros.
Reduced MIP has 1168 binaries, 0 generals, 0 SOSs, and 0 indicators.
Presolve time = 0.04 sec. (44.43 ticks)
Probing fixed 1 vars, tightened 256 bounds.
Probing time = 0.05 sec. (44.20 ticks)
Cover probing fixed 0 vars, tightened 190 bounds.
Tried aggregator 1 time.
Detecting symmetries...
MIP Presolve eliminated 26 rows and 2 columns.
MIP Presolve modified 5059 coefficients.
Reduced MIP has 8306 rows, 2720 columns, and 31355 nonzeros.
Reduced MIP has 1167 binaries, 0 generals, 0 SOSs, and 0 indicators.
Presolve time = 0.02 sec. (22.06 ticks)
Probing fixed 0 vars, tightened 90 bounds.
Probing time = 0.05 sec. (40.55 ticks)
Cover probing fixed 0 vars, tightened 69 bounds.
Clique table members: 18692.
MIP emphasis: optimality.
MIP search method: dynamic search.
Parallel mode: deterministic, using up to 8 threads.
Root relaxation solution time = 0.11 sec. (144.31 ticks)

        Nodes                                         Cuts/
   Node  Left     Objective  IInf  Best Integer    Best Bound    ItCnt     Gap

*     0+    0                       533875.1017    44880.8652            91.59%
*     0+    0                       533847.9795    44880.8652            91.59%
*     0+    0                       333826.8649    44880.8652            86.56%
*     0+    0                       333809.0666    44880.8652            86.55%
      0     0    79213.0345   216   333809.0666    79213.0345     1531   76.27%
      0     0    96254.6467   297   333809.0666     Cuts: 185     2066   71.16%
      0     0    96260.5587   272   333809.0666      Cuts: 86     2377   71.16%
      0     0    96261.7671   285   333809.0666      Cuts: 36     2476   71.16%
*     0+    0                       327384.1230    96261.7671            70.60%
      0     0  -1.00000e+75     0   327384.1230    96261.7671     2476   70.60%
*     0+    0                       327384.1230    96261.7671            70.60%
      0     0    96272.3142   260   327384.1230      Cuts: 38     2577   70.59%
      0     0    96274.6287   289   327384.1230      Cuts: 15     2675   70.59%
Detecting symmetries...
*     0+    0                       320985.2647    96274.6287            70.01%
*     0+    0                       320985.2647    96274.6302            70.01%
      0     0  -1.00000e+75     0   320985.2647    96274.6302     2675   70.01%
Detecting symmetries...
      0     2    96274.6287   289   320985.2647    96274.6302     2675   70.01%
Elapsed time = 2.36 sec. (3829.71 ticks, tree = 0.02 MB, solutions = 8)
     26    21    96368.3543   272   320985.2647    96283.9253     4849   70.00%
*    42+    5                       314559.2345    96283.9253            69.39%
*    45+    7                       295324.0148    96283.9253            67.40%
     70    61    97782.4921   307   295324.0148    96283.9253     8218   67.40%
    109   103   102764.5377   240   295324.0148    96283.9253    12571   67.40%
    114    71    98946.4480   256   295324.0148    96283.9253    10124   67.40%
    134   109   102724.2414   292   295324.0148    96286.6899    13271   67.40%
    162   152   112857.9254   163   295324.0148    96286.6899    20684   67.40%
    176   167   102787.5831   256   295324.0148    96286.6899    22682   67.40%
    199   186   121951.1441   175   295324.0148    96286.6899    25281   67.40%
    232   206   102755.8678   242   295324.0148    96286.6899    28393   67.40%
    387   309   147793.2370   134   295324.0148    96299.6243    53666   67.39%
Elapsed time = 4.21 sec. (7103.68 ticks, tree = 0.56 MB, solutions = 11)
    547   397   101667.0729   217   295324.0148    96299.6243    61938   67.39%
    749   562   122028.9456   114   295324.0148    96300.2698    71838   67.39%

Clique cuts applied:  21
Implied bound cuts applied:  11
Flow cuts applied:  112
Flow path cuts applied:  0
Zero-half cuts applied:  20
Gomory fractional cuts applied:  4

Root node processing (before b&c):
  Real time             =    2.33 sec. (3798.53 ticks)
Parallel b&c, 8 threads:
  Real time             =    3.64 sec. (6207.16 ticks)
  Sync time (average)   =    0.44 sec.
  Wait time (average)   =    0.00 sec.
                          ------------
Total (root+branch&cut) =    5.97 sec. (10005.70 ticks)
Gap: 67.39%
Upper bound: 295324
Lower bound: 96300.3
End of CPLEX run. Time: 5.97602 seconds

===== New CPLEX run =====
Instance: /home/yorig/tuner/mpils-tests/instances/miplib/medium-1/momentum1.mps
Config: /scratch/yorig/mpils-results-grid-ticks-10000/medium-1/16proc/seed-5/6_momentum1_seed-5_20260425_215516/iterated_local_search/run_2_worker_14/ils_config_8033316690206697282.prm
========================

Selected objective sense:  MINIMIZE
Selected objective  name:  MINIMIZE
Selected RHS        name:  rhs
Selected bound      name:  bnd
Version identifier: 22.1.2.0 | 2024-11-26 | 0edbb82fd
CPXPARAM_Threads                                 8
CPXPARAM_Parallel                                1
CPXPARAM_MIP_Strategy_Branch                     -1
CPXPARAM_MIP_Cuts_FlowCovers                     2
CPXPARAM_MIP_Cuts_GUBCovers                      2
CPXPARAM_MIP_Limits_GomoryCand                   50
CPXPARAM_MIP_Cuts_Gomory                         1
CPXPARAM_MIP_Cuts_PathCut                        1
CPXPARAM_MIP_Strategy_Dive                       1
CPXPARAM_DetTimeLimit                            10000
Tried aggregator 3 times.
MIP Presolve eliminated 30810 rows and 1362 columns.
MIP Presolve modified 22293 coefficients.
Aggregator did 232 substitutions.
Reduced MIP has 11638 rows, 3580 columns, and 46688 nonzeros.
Reduced MIP has 1625 binaries, 0 generals, 0 SOSs, and 0 indicators.
Presolve time = 0.10 sec. (139.58 ticks)
Found incumbent of value 533875.101733 after 0.12 sec. (154.72 ticks)
Probing fixed 392 vars, tightened 1078 bounds.
Probing changed sense of 113 constraints.
Probing time = 0.08 sec. (90.30 ticks)
Cover probing fixed 0 vars, tightened 267 bounds.
Tried aggregator 2 times.
MIP Presolve eliminated 3295 rows and 847 columns.
MIP Presolve modified 7082 coefficients.
Aggregator did 11 substitutions.
Reduced MIP has 8332 rows, 2722 columns, and 31418 nonzeros.
Reduced MIP has 1168 binaries, 0 generals, 0 SOSs, and 0 indicators.
Presolve time = 0.04 sec. (44.43 ticks)
Probing fixed 1 vars, tightened 256 bounds.
Probing time = 0.05 sec. (44.20 ticks)
Cover probing fixed 0 vars, tightened 190 bounds.
Tried aggregator 1 time.
Detecting symmetries...
MIP Presolve eliminated 26 rows and 2 columns.
MIP Presolve modified 5059 coefficients.
Reduced MIP has 8306 rows, 2720 columns, and 31355 nonzeros.
Reduced MIP has 1167 binaries, 0 generals, 0 SOSs, and 0 indicators.
Presolve time = 0.02 sec. (22.06 ticks)
Probing fixed 0 vars, tightened 90 bounds.
Probing time = 0.04 sec. (40.55 ticks)
Cover probing fixed 0 vars, tightened 69 bounds.
Clique table members: 18692.
MIP emphasis: balance optimality and feasibility.
MIP search method: dynamic search.
Parallel mode: deterministic, using up to 8 threads.
Root relaxation solution time = 0.12 sec. (144.31 ticks)

        Nodes                                         Cuts/
   Node  Left     Objective  IInf  Best Integer    Best Bound    ItCnt     Gap

*     0+    0                       533875.1017    44880.8652            91.59%
*     0+    0                       533847.9795    44880.8652            91.59%
*     0+    0                       333826.8649    44880.8652            86.56%
*     0+    0                       333809.0666    44880.8652            86.55%
      0     0    79213.0345   216   333809.0666    79213.0345     1531   76.27%
      0     0    96254.6467   297   333809.0666     Cuts: 185     2066   71.16%
      0     0    96260.5587   272   333809.0666      Cuts: 86     2377   71.16%
      0     0    96261.7671   285   333809.0666      Cuts: 36     2476   71.16%
*     0+    0                       327384.1230    96261.7671            70.60%
      0     0  -1.00000e+75     0   327384.1230    96261.7671     2476   70.60%
*     0+    0                       327384.1230    96261.7671            70.60%
      0     0    96272.3142   260   327384.1230      Cuts: 38     2577   70.59%
      0     0    96274.6287   289   327384.1230      Cuts: 15     2675   70.59%
Detecting symmetries...
*     0+    0                       320985.2647    96274.6287            70.01%
*     0+    0                       320985.2647    96274.6302            70.01%
      0     0  -1.00000e+75     0   320985.2647    96274.6302     2675   70.01%
Detecting symmetries...
      0     2    96274.6287   289   320985.2647    96274.6302     2675   70.01%
Elapsed time = 2.36 sec. (3831.11 ticks, tree = 0.02 MB, solutions = 8)
     26    21    96368.3543   272   320985.2647    96283.9253     4849   70.00%
*    42+    5                       314559.2345    96283.9253            69.39%
*    45+    7                       295324.0148    96283.9253            67.40%
     70    61    97782.4921   307   295324.0148    96283.9253     8218   67.40%
    111    86    97812.5962   295   295324.0148    96283.9253    10992   67.40%
    121     6    96286.6885   230   295324.0148    96283.9253     3320   67.40%
    171   127   102720.6006   256   295324.0148    96286.6899    15966   67.40%
    201   179   112358.4371   227   295324.0148    96286.6899    21521   67.40%
    239   198   118791.8888   205   295324.0148    96286.6899    23722   67.40%
    291   220   125215.1907   225   295324.0148    96286.6899    27890   67.40%
    354   290    96454.3207   256   295324.0148    96286.6899    34864   67.40%
    579   461   146086.0270   118   295324.0148    96286.6899    55001   67.40%
Elapsed time = 4.21 sec. (7044.08 ticks, tree = 1.00 MB, solutions = 11)
    694   584   173259.4146   170   295324.0148    96302.0917    70547   67.39%
    905   720        cutoff         295324.0148    96309.0482    77439   67.39%
   1172   917   118785.2088   201   295324.0148    96309.0482    87815   67.39%

GUB cover cuts applied:  0
Clique cuts applied:  21
Implied bound cuts applied:  11
Flow cuts applied:  111
Flow path cuts applied:  0
Zero-half cuts applied:  20
Gomory fractional cuts applied:  4

Root node processing (before b&c):
  Real time             =    2.34 sec. (3800.06 ticks)
Parallel b&c, 8 threads:
  Real time             =    3.62 sec. (6223.37 ticks)
  Sync time (average)   =    0.38 sec.
  Wait time (average)   =    0.00 sec.
                          ------------
Total (root+branch&cut) =    5.96 sec. (10023.43 ticks)
Gap: 67.39%
Upper bound: 295324
Lower bound: 96309
End of CPLEX run. Time: 5.96542 seconds
